000 000 002 000 000 000 000 006 006 007 003 000 000 002 001 003 003 007 010 010 012 026 022 006 003 022 015 028 005 -99 000
000 000 000 000 000 000 001 005 005 002 002 000 000 001 000 003 004 003 007 006 010 025 015 002 003 008 012 011 006 -99 -99
-99 000 000 000 000 000 000 001 004 004 001 000 000 001 001 002 003 002 006 008 010 022 015 003 001 003 004 000 001 003 -99
000 000 000 000 000 000 000 001 001 002 000 000 000 001 001 002 003 002 007 009 012 014 009 004 001 001 001 000 001 003 -99
000 000 000 000 000 000 000 000 001 001 000 000 000 001 001 002 004 003 004 007 007 009 006 002 000 001 001 000 001 -99 -99
000 000 000 000 000 000 000 000 000 001 001 000 000 000 002 002 003 003 003 003 002 003 002 002 001 -99 -99 -99 001 -99 000
000 000 000 000 000 000 000 000 001 000 001 000 000 000 001 001 002 002 001 001 001 000 001 001 001 -99 -99 -99 -99 -99 -99
000 000 000 000 000 000 000 000 001 000 000 000 000 000 000 001 001 001 001 001 001 001 001 001 001 -99 -99 -99 -99 -99 -99
000 000 000 000 000 000 000 000 000 000 001 001 000 001 000 000 000 000 001 001 001 001 001 001 000 -99 -99 -99 -99 005 -99
000 000 000 000 000 000 000 000 000 000 001 001 000 000 000 000 001 001 001 001 001 000 -99 000 000 -99 -99 000 044 007 000
000 000 000 000 000 000 000 000 000 000 000 000 000 000 000 000 001 002 001 000 001 000 -99 000 000 -99 -99 000 020 006 000
000 000 000 000 000 000 000 000 000 001 001 001 001 001 000 000 001 002 001 001 001 000 -99 000 000 -99 -99 -99 009 003 000
000 000 000 000 000 000 000 000 000 001 001 001 001 002 001 001 001 002 001 000 000 000 -99 -99 000 -99 -99 -99 000 005 001
000 000 000 001 000 000 000 000 001 001 000 001 001 001 000 000 001 001 001 000 000 000 -99 -99 -99 -99 -99 -99 -99 -99 -99
001 000 001 001 000 000 001 001 001 000 000 000 001 001 001 000 001 001 000 000 000 000 -99 -99 -99 -99 -99 000 -99 -99 -99
001 001 001 001 000 002 001 001 001 000 000 001 000 001 001 000 000 001 000 000 -99 000 -99 000 000 -99 -99 000 -99 -99 -99
000 000 001 001 001 001 000 000 001 001 001 001 000 000 000 000 000 000 000 000 -99 000 000 000 000 -99 -99 000 -99 -99 -99
000 000 000 000 000 000 000 000 000 001 001 001 000 000 000 000 000 000 000 000 -99 000 000 -99 000 -99 -99 000 -99 000 -99
001 000 000 000 000 000 000 000 000 000 001 000 000 000 000 000 000 000 000 000 -99 000 000 000 000 -99 -99 -99 -99 000 -99
000 001 000 000 000 000 000 000 000 000 000 000 000 000 000 000 000 000 -99 -99 000 000 000 000 000 -99 -99 -99 -99 000 -99
000 000 000 000 000 000 000 000 000 000 000 000 000 000 000 000 000 000 000 000 -99 000 000 -99 -99 -99 -99 -99 -99 -99 -99
000 000 000 000 000 000 000 000 000 000 000 000 000 000 000 000 000 000 000 000 000 000 000 -99 -99 -99 -99 -99 -99 -99 -99
000 000 000 000 000 000 000 000 000 000 000 000 000 000 000 000 000 000 000 000 000 000 000 -99 -99 -99 -99 -99 -99 -99 -99
000 000 000 000 000 000 000 000 000 000 000 000 000 000 000 000 000 000 000 000 000 000 000 -99 -99 -99 -99 -99 -99 -99 000
000 000 000 000 000 000 000 000 000 000 000 000 000 000 000 000 000 -99 000 000 000 000 000 -99 -99 -99 -99 -99 -99 -99 000
000 000 000 000 000 000 000 000 000 000 000 000 000 000 000 000 000 -99 000 000 000 000 000 -99 -99 -99 -99 -99 -99 -99 000
000 000 000 000 000 000 000 000 000 000 000 000 000 000 000 000 000 000 000 000 000 -99 -99 -99 -99 -99 -99 -99 -99 -99 000
000 000 000 000 000 000 000 000 000 000 000 000 000 000 000 000 000 000 000 000 000 -99 -99 -99 -99 -99 -99 -99 -99 -99 000
000 000 000 000 000 000 000 000 000 000 000 000 000 000 000 000 000 000 000 000 000 -99 -99 -99 -99 -99 -99 -99 -99 -99 000
000 000 000 000 000 000 000 000 000 000 000 000 000 000 000 000 000 000 000 000 -99 -99 -99 -99 -99 -99 -99 -99 -99 -99 000
000 000 000 001 000 000 000 000 000 000 000 -99 -99 000 000 000 -99 000 000 000 000 -99 -99 -99 -99 -99 -99 -99 -99 -99 -99
000 000 000 001 000 000 000 000 000 000 000 -99 -99 000 000 -99 000 000 000 000 -99 -99 000 -99 000 000 -99 -99 -99 -99 -99
000 000 000 000 000 001 000 000 000 000 000 -99 -99 000 000 -99 000 000 000 000 -99 -99 000 000 000 000 -99 -99 -99 000 000
000 000 000 000 000 000 000 000 000 000 000 -99 000 000 000 000 000 000 000 000 -99 000 000 000 000 000 000 000 000 000 000
000 000 000 000 000 000 000 000 000 000 000 000 000 000 000 000 000 -99 -99 000 000 000 000 000 000 000 000 000 000 000 000
000 000 000 000 000 000 000 000 000 000 000 000 000 000 000 000 000 -99 000 000 000 000 000 000 000 000 000 000 000 000 000
000 000 000 000 000 000 000 000 000 000 000 -99 000 000 000 000 -99 000 000 000 000 000 000 000 000 000 000 000 000 000 000
000 000 000 000 000 000 000 000 000 000 -99 000 000 000 000 000 000 000 000 000 000 000 000 001 002 001 003 002 000 000 000
000 000 000 000 000 -99 -99 000 000 000 -99 -99 000 000 000 000 000 000 -99 000 000 000 001 003 002 001 005 013 002 001 000
000 000 000 000 000 -99 -99 000 000 -99 -99 000 000 000 000 000 000 000 -99 -99 -99 000 001 002 001 009 018 037 001 000 -99
000 000 001 000 000 -99 -99 -99 -99 -99 000 000 000 000 000 -99 000 000 000 -99 -99 000 000 000 000 002 010 044 001 000 000
001 001 001 000 000 -99 -99 -99 -99 000 000 000 000 000 000 -99 -99 000 000 000 -99 000 000 000 000 000 002 004 000 000 000
001 001 001 000 000 000 000 -99 -99 000 000 000 000 000 000 000 000 000 000 000 000 000 000 000 000 000 000 001 000 000 000
001 002 001 001 000 000 -99 -99 000 000 000 000 000 000 000 000 000 000 000 -99 000 000 000 000 000 000 000 000 002 002 000
003 003 005 000 000 000 -99 -99 -99 000 000 000 000 000 000 000 000 000 000 -99 000 000 000 000 000 000 001 002 004 002 000
006 004 002 000 000 -99 -99 -99 -99 000 000 000 001 000 001 000 000 000 001 -99 000 000 000 000 000 002 001 012 028 002 000
004 002 001 000 000 -99 -99 -99 -99 000 000 000 001 000 002 002 000 000 002 000 000 000 000 001 002 002 007 058 025 004 001
001 001 000 000 000 -99 -99 -99 -99 000 000 000 001 001 002 002 000 001 002 000 001 000 001 003 004 009 028 092 026 005 004
001 001 000 000 000 -99 -99 -99 -99 000 000 000 000 001 003 003 001 000 000 000 004 005 005 019 011 021 065 118 026 022 007
001 002 000 000 000 000 -99 -99 000 000 000 000 000 001 006 008 002 002 000 000 003 006 016 028 047 052 121 092 054 029 008
002 001 001 000 000 000 000 000 000 000 000 000 000 004 018 006 008 003 000 001 004 018 027 026 062 054 126 152 061 012 002
004 002 001 001 000 000 000 000 000 000 000 000 000 005 017 012 012 006 004 003 008 021 022 029 056 062 123 078 015 004 000
010 007 007 004 005 007 001 001 000 000 000 000 001 012 018 033 017 019 010 012 018 014 016 031 041 088 069 026 004 000 -99
010 011 016 017 014 009 004 003 002 000 000 000 001 006 023 029 029 027 016 023 014 012 008 034 048 038 027 011 000 000 000
006 017 026 024 024 015 006 002 001 000 000 000 002 006 026 028 035 031 056 018 006 003 005 042 023 013 013 002 000 -99 000
